NAME: A-n38-k5-C13-V2
TYPE: SoftCluVRP
DIMENSION:  38 
VEHICLES:  2 
GVRP_SETS:  13 
CAPACITY:  100 
EDGE_WEIGHT_TYPE: EUC_2D
NODE_COORD_SECTION 
1 69.000000 63.000000
2 3.000000 35.000000
3 71.000000 79.000000
4 1.000000 47.000000
5 11.000000 15.000000
6 87.000000 23.000000
7 37.000000 33.000000
8 87.000000 29.000000
9 35.000000 81.000000
10 55.000000 71.000000
11 41.000000 51.000000
12 93.000000 9.000000
13 11.000000 49.000000
14 75.000000 89.000000
15 75.000000 69.000000
16 97.000000 95.000000
17 15.000000 13.000000
18 63.000000 95.000000
19 47.000000 41.000000
20 45.000000 41.000000
21 89.000000 43.000000
22 45.000000 59.000000
23 95.000000 23.000000
24 19.000000 83.000000
25 71.000000 69.000000
26 27.000000 19.000000
27 17.000000 57.000000
28 93.000000 15.000000
29 59.000000 29.000000
30 35.000000 39.000000
31 33.000000 51.000000
32 61.000000 21.000000
33 89.000000 53.000000
34 33.000000 85.000000
35 37.000000 37.000000
36 21.000000 91.000000
37 67.000000 95.000000
38 61.000000 15.000000
GVRP_SET_SECTION 
 1 5  17  26 -1
 2  16 -1
 3  12  28 -1
 4  36  9  24  34 -1
 5  11  7  19  20  22  30  31  35 -1
 6  33  21 -1
 7  4  2  13 -1
 8  18  14  37 -1
 9  32  29  38 -1
 10  10 -1
 11  8  6  23 -1
 12  15  3  25 -1
 13  27 -1
 DEMAND_SECTION
 1 11 
 2 13 
 3 18 
 4 13 
 5 15 
 6 14 
 7 7 
 8 10 
 9 8 
 10 23 
 11 16 
 12 10 
 13 13 
EOF
